inst_name = "MaxCut_19" 
n = 19
W = [0 810 903 797 867 620 905 736 825 739 979 619 875 915 885 950 909 704 654; 0 0 999 694 582 942 930 562 874 612 553 704 901 522 677 976 746 575 507; 0 0 0 825 519 992 898 732 612 774 954 876 640 511 856 660 594 909 738; 0 0 0 0 974 953 850 809 813 744 660 586 951 891 970 611 672 554 620; 0 0 0 0 0 541 674 895 772 878 527 950 892 906 801 667 843 826 586; 0 0 0 0 0 0 609 652 688 576 733 821 885 886 717 841 744 940 862; 0 0 0 0 0 0 0 784 604 510 839 989 707 841 898 772 662 901 970; 0 0 0 0 0 0 0 0 543 564 994 553 891 917 923 724 763 985 531; 0 0 0 0 0 0 0 0 0 608 984 940 575 626 544 636 659 832 661; 0 0 0 0 0 0 0 0 0 0 587 671 614 559 648 589 860 652 855; 0 0 0 0 0 0 0 0 0 0 0 762 767 871 911 765 916 955 827; 0 0 0 0 0 0 0 0 0 0 0 0 874 587 904 865 587 529 700; 0 0 0 0 0 0 0 0 0 0 0 0 0 619 868 814 697 793 846; 0 0 0 0 0 0 0 0 0 0 0 0 0 0 735 510 772 940 876; 0 0 0 0 0 0 0 0 0 0 0 0 0 0 0 540 860 880 639; 0 0 0 0 0 0 0 0 0 0 0 0 0 0 0 0 508 784 571; 0 0 0 0 0 0 0 0 0 0 0 0 0 0 0 0 0 584 721; 0 0 0 0 0 0 0 0 0 0 0 0 0 0 0 0 0 0 773; 0 0 0 0 0 0 0 0 0 0 0 0 0 0 0 0 0 0 0]
W_bis = [0 582 600 615 554 653 526 523 532 630 524 558 552 566 510 511 597 651 524; 0 0 0 568 546 511 515 631 535 573 875 674 537 515 626 516 653 550 712; 0 0 0 0 0 511 604 725 862 605 547 527 728 702 638 512 801 580 585; 0 0 0 0 0 0 0 685 615 668 592 872 540 554 522 521 784 674 684; 0 0 0 0 0 0 0 0 0 518 660 545 599 567 555 717 659 657 658; 0 0 0 0 0 0 0 0 0 0 0 527 513 568 747 650 605 522 603; 0 0 0 0 0 0 0 0 0 0 0 0 0 557 591 713 802 521 528; 0 0 0 0 0 0 0 0 0 0 0 0 0 0 0 539 733 514 737; 0 0 0 0 0 0 0 0 0 0 0 0 0 0 0 0 0 538 682; 0 0 0 0 0 0 0 0 0 0 0 0 0 0 0 0 0 0 0; 0 0 0 0 0 0 0 0 0 0 0 0 0 0 0 0 0 0 0; 0 0 0 0 0 0 0 0 0 0 0 0 0 0 0 0 0 0 0; 0 0 0 0 0 0 0 0 0 0 0 0 0 0 0 0 0 0 0; 0 0 0 0 0 0 0 0 0 0 0 0 0 0 0 0 0 0 0; 0 0 0 0 0 0 0 0 0 0 0 0 0 0 0 0 0 0 0; 0 0 0 0 0 0 0 0 0 0 0 0 0 0 0 0 0 0 0; 0 0 0 0 0 0 0 0 0 0 0 0 0 0 0 0 0 0 0; 0 0 0 0 0 0 0 0 0 0 0 0 0 0 0 0 0 0 0; 0 0 0 0 0 0 0 0 0 0 0 0 0 0 0 0 0 0 0]
